words_hard_train/1401.qaiger
aag 93 22 0 1 71
2
4
8
12
16
20
28
30
44
46
52
76
78
98
100
106
108
116
120
140
142
166
186
6 2 4
10 7 9
14 11 12
18 15 17
22 19 21
24 18 20
26 23 25
32 29 31
34 32 9
36 11 35
38 37 13
40 36 12
42 39 41
48 45 47
50 42 48
54 53 47
56 14 16
58 57 19
60 6 12
62 34 60
64 59 63
66 58 62
68 65 67
70 54 69
72 51 71
74 43 49
80 77 79
82 33 2
84 82 4
86 84 8
88 36 87
90 81 88
92 75 91
94 32 3
96 95 83
102 99 101
104 97 103
110 107 109
112 110 30
114 113 33
118 117 28
122 118 121
124 111 31
126 122 125
128 114 127
130 105 129
132 102 3
134 131 133
136 83 5
138 137 85
144 141 143
146 139 145
148 135 147
150 80 89
152 149 151
154 138 144
156 152 155
158 92 157
160 72 159
162 55 68
164 161 163
168 167 47
170 165 168
172 26 171
174 172 67
176 66 21
178 164 177
180 179 171
182 177 168
184 181 183
186 175 185
i0 1 x1[2]
i1 1 x1[3]
i2 1 x1[4]
i3 1 x1[5]
i4 1 x1[6]
i5 1 x1[7]
i6 1 x1[0]
i7 1 x1[1]
i8 2 y1[5]
i9 1 x2[7]
i10 2 y1[6]
i11 2 y1[4]
i12 1 x2[6]
i13 2 y1[2]
i14 1 x2[4]
i15 2 y1[1]
i16 1 x2[3]
i17 2 y1[0]
i18 1 x2[2]
i19 2 y1[3]
i20 1 x2[5]
i21 2 y1[7]
o0 bv[0]
c
simplified
  >=
    or
      >> 2
        1 x2
      2 y1
    add
      84
      1 x1
