words_hard_train/1401.qaiger.qdimacs
p cnf 93 214
a 1 2 4 6 39 8 71 10 14 15 50 54 23 60 0
e 3 5 7 9 11 12 13 16 17 18 19 20 21 22 24 25 26 27 28 29 30 31 32 33 34 35 36 37 38 40 41 42 43 44 45 46 47 48 49 51 52 53 55 56 57 58 59 61 62 63 64 65 66 67 68 69 70 72 73 74 75 76 77 78 79 80 81 82 83 84 85 86 87 88 89 90 91 92 93 0
-1 -2 3 0
1 -3 0
2 -3 0
3 4 5 0
-3 -5 0
-4 -5 0
5 -6 7 0
-5 -7 0
6 -7 0
7 8 9 0
-7 -9 0
-8 -9 0
9 10 11 0
-9 -11 0
-10 -11 0
-9 -10 12 0
9 -12 0
10 -12 0
11 12 13 0
-11 -13 0
-12 -13 0
14 15 16 0
-14 -16 0
-15 -16 0
-16 4 17 0
16 -17 0
-4 -17 0
5 17 18 0
-5 -18 0
-17 -18 0
18 6 19 0
-18 -19 0
-6 -19 0
-18 -6 20 0
18 -20 0
6 -20 0
19 20 21 0
-19 -21 0
-20 -21 0
22 23 24 0
-22 -24 0
-23 -24 0
-21 -24 25 0
21 -25 0
24 -25 0
26 23 27 0
-26 -27 0
-23 -27 0
-7 -8 28 0
7 -28 0
8 -28 0
28 9 29 0
-28 -29 0
-9 -29 0
-3 -6 30 0
3 -30 0
6 -30 0
-17 -30 31 0
17 -31 0
30 -31 0
29 31 32 0
-29 -32 0
-31 -32 0
-29 -31 33 0
29 -33 0
31 -33 0
32 33 34 0
-32 -34 0
-33 -34 0
-27 34 35 0
27 -35 0
-34 -35 0
25 35 36 0
-25 -36 0
-35 -36 0
21 24 37 0
-21 -37 0
-24 -37 0
38 39 40 0
-38 -40 0
-39 -40 0
16 -1 41 0
-16 -41 0
1 -41 0
-41 -2 42 0
41 -42 0
2 -42 0
-42 -4 43 0
42 -43 0
4 -43 0
-18 43 44 0
18 -44 0
-43 -44 0
40 -44 45 0
-40 -45 0
44 -45 0
37 45 46 0
-37 -46 0
-45 -46 0
-16 1 47 0
16 -47 0
-1 -47 0
47 41 48 0
-47 -48 0
-41 -48 0
49 50 51 0
-49 -51 0
-50 -51 0
48 51 52 0
-48 -52 0
-51 -52 0
53 54 55 0
-53 -55 0
-54 -55 0
-55 -15 56 0
55 -56 0
15 -56 0
56 16 57 0
-56 -57 0
-16 -57 0
58 -14 59 0
-58 -59 0
14 -59 0
-59 60 61 0
59 -61 0
-60 -61 0
55 15 62 0
-55 -62 0
-15 -62 0
-61 62 63 0
61 -63 0
-62 -63 0
-57 63 64 0
57 -64 0
-63 -64 0
52 64 65 0
-52 -65 0
-64 -65 0
-51 1 66 0
51 -66 0
-1 -66 0
65 66 67 0
-65 -67 0
-66 -67 0
41 2 68 0
-41 -68 0
-2 -68 0
68 42 69 0
-68 -69 0
-42 -69 0
70 71 72 0
-70 -72 0
-71 -72 0
69 72 73 0
-69 -73 0
-72 -73 0
67 73 74 0
-67 -74 0
-73 -74 0
-40 44 75 0
40 -75 0
-44 -75 0
74 75 76 0
-74 -76 0
-75 -76 0
-69 -72 77 0
69 -77 0
72 -77 0
-76 77 78 0
76 -78 0
-77 -78 0
-46 78 79 0
46 -79 0
-78 -79 0
-36 79 80 0
36 -80 0
-79 -80 0
27 -34 81 0
-27 -81 0
34 -81 0
80 81 82 0
-80 -82 0
-81 -82 0
83 23 84 0
-83 -84 0
-23 -84 0
82 -84 85 0
-82 -85 0
84 -85 0
-13 85 86 0
13 -86 0
-85 -86 0
-86 33 87 0
86 -87 0
-33 -87 0
-33 10 88 0
33 -88 0
-10 -88 0
-82 88 89 0
82 -89 0
-88 -89 0
89 85 90 0
-89 -90 0
-85 -90 0
88 -84 91 0
-88 -91 0
84 -91 0
90 91 92 0
-90 -92 0
-91 -92 0
87 92 93 0
-87 -93 0
-92 -93 0
93 0
